VER
4

OBJSENSE
MIN

VAR
65 1
F 65

CON
2134 3
HVECQRE 2049
HVECPSD 64
L= 21

OBJACOORD
1
0 1.0

ACOORD
167
0 0 1.0
1 1 0.1
5 2 0.1
6 3 0.1
9 4 0.1
100 25 0.9
140 34 0.9
141 35 0.9
144 36 0.9
401 5 0.1
402 6 0.1
405 7 0.1
406 8 0.1
441 9 0.1
485 10 0.1
486 11 0.1
489 12 0.1
490 13 0.1
525 14 0.1
526 15 0.1
529 16 0.1
860 45 0.9
861 46 0.9
864 47 0.9
865 48 0.9
900 49 0.9
980 58 0.9
981 59 0.9
984 60 0.9
985 61 0.9
1020 62 0.9
1021 63 0.9
1024 64 0.9
1025 1 0.1
1029 2 0.1
1030 3 0.1
1033 4 0.1
1124 25 0.9
1164 34 0.9
1165 35 0.9
1168 36 0.9
1465 9 0.1
1549 14 0.1
1550 15 0.1
1553 16 0.1
1924 49 0.9
2044 62 0.9
2045 63 0.9
2048 64 0.9
2049 1 1.0
2050 2 1.0
2051 3 1.0
2052 4 1.0
2053 5 1.0
2054 6 1.0
2055 7 1.0
2056 8 1.0
2057 9 1.0
2058 10 1.0
2059 11 1.0
2060 12 1.0
2061 13 1.0
2062 14 1.0
2063 15 1.0
2064 16 1.0
2065 17 1.0
2066 18 1.0
2067 19 1.0
2068 20 1.0
2069 21 1.0
2070 22 1.0
2071 23 1.0
2072 24 1.0
2073 25 1.0
2074 26 1.0
2075 27 1.0
2076 28 1.0
2077 29 1.0
2078 30 1.0
2079 31 1.0
2080 32 1.0
2081 33 1.0
2082 34 1.0
2083 35 1.0
2084 36 1.0
2085 37 1.0
2086 38 1.0
2087 39 1.0
2088 40 1.0
2089 41 1.0
2090 42 1.0
2091 43 1.0
2092 44 1.0
2093 45 1.0
2094 46 1.0
2095 47 1.0
2096 48 1.0
2097 49 1.0
2098 50 1.0
2099 51 1.0
2100 52 1.0
2101 53 1.0
2102 54 1.0
2103 55 1.0
2104 56 1.0
2105 57 1.0
2106 58 1.0
2107 59 1.0
2108 60 1.0
2109 61 1.0
2110 62 1.0
2111 63 1.0
2112 64 1.0
2113 1 1.0
2113 4 1.0
2114 5 1.0
2114 12 1.0
2115 17 1.0
2115 28 1.0
2116 37 1.0
2116 52 1.0
2117 6 -1.0
2117 13 -1.0
2118 9 1.0
2118 16 1.0
2119 21 1.0
2119 32 1.0
2120 41 1.0
2120 56 1.0
2121 18 -1.0
2121 29 -1.0
2122 22 -1.0
2122 33 -1.0
2123 25 1.0
2123 36 1.0
2124 45 1.0
2124 60 1.0
2125 38 -1.0
2125 53 -1.0
2126 42 -1.0
2126 57 -1.0
2127 46 -1.0
2127 61 -1.0
2128 49 1.0
2128 64 1.0
2129 4 1.0
2129 9 1.0
2130 25 0.5
2130 34 -0.7071067811865475
2130 36 0.5
2130 49 0.5
2130 62 0.7071067811865475
2130 64 0.5
2131 2 1.414213562373095
2131 14 -1.414213562373095
2132 25 1.0
2132 36 -1.0
2132 49 -1.0
2132 64 1.0
2133 1 1.0
2133 4 1.0
2133 9 1.0
2133 16 1.0
2133 25 1.0
2133 36 1.0
2133 49 1.0
2133 64 1.0

BCOORD
11
2113 0.05
2115 0.15
2116 0.15
2118 0.05
2119 0.15
2120 -0.15
2123 0.45
2128 0.45
2129 0.003
2130 0.027
2133 1.0
